NAME : LPS-n21-m285
COMMENT : (Lartu-Peter-Santi Plot, instance 7485 out of 39200. 21 customers.)
TYPE : CVRP
DIMENSION : 21
EDGE_WEIGHT_TYPE : EUC_2D
CAPACITY : 123
NODE_COORD_SECTION
 1 61 5
 2 6 15
 3 50 33
 4 19 94
 5 41 9
 6 7 78
 7 69 22
 8 93 76
 9 81 90
 10 76 29
 11 72 100
 12 77 23
 13 48 5
 14 55 77
 15 26 78
 16 84 59
 17 60 39
 18 37 13
 19 19 69
 20 91 63
 21 72 36
DEMAND_SECTION
1 0
2 98
3 72
4 105
5 86
6 50
7 116
8 62
9 74
10 99
11 33
12 75
13 94
14 22
15 72
16 29
17 7
18 123
19 18
20 114
21 25
DEPOT_SECTION
 1
 -1
EOF
